0 218 
1 225 
2 230 
3 231 
4 231 
5 233 
6 238 
7 241 
8 242 
9 242 
10 242 
11 242 
12 243 
13 242 
14 242 
15 243 
16 243 
17 243 
18 243 
19 242 
20 241 
21 242 
22 242 
23 241 
24 240 
25 240 
26 239 
27 239 
28 239 
29 240 
30 240 
31 239 
32 239 
33 238 
34 236 
35 236 
36 235 
37 237 
38 238 
39 237 
40 238 
41 237 
42 237 
43 236 
44 236 
45 236 
46 236 
47 243 
48 243 
49 243 
50 247 
51 246 
52 245 
53 244 
54 243 
55 243 
56 242 
57 241 
58 240 
59 238 
60 242 
61 241 
62 242 
63 240 
64 240 
65 239 
66 239 
67 238 
68 238 
69 237 
70 235 
71 234 
72 232 
73 233 
74 233 
75 232 
76 231 
77 230 
78 228 
79 226 
80 226 
81 225 
82 223 
83 221 
84 220 
85 219 
86 220 
87 221 
88 224 
89 223 
90 224 
91 225 
92 226 
93 227 
94 227 
95 227 
96 226 
97 225 
98 223 
99 222 
100 221 
101 221 
102 224 
103 227 
104 234 
105 234 
106 235 
107 235 
108 235 
109 234 
110 234 
111 233 
112 232 
113 231 
114 230 
115 228 
116 227 
117 227 
118 225 
119 225 
120 224 
121 224 
122 223 
123 223 
124 225 
125 223 
126 223 
127 222 
128 223 
129 221 
130 222 
131 221 
132 220 
133 220 
134 219 
135 220 
136 219 
137 219 
138 220 
139 218 
140 216 
141 217 
142 217 
143 218 
144 218 
145 216 
146 214 
147 212 
148 212 
149 212 
150 213 
151 212 
152 215 
153 214 
154 213 
155 211 
156 209 
157 209 
158 208 
159 208 
160 210 
161 209 
162 209 
163 209 
164 210 
165 210 
166 209 
167 207 
168 207 
169 206 
170 206 
171 205 
172 204 
173 203 
174 202 
175 201 
176 201 
177 200 
178 198 
179 197 
180 196 
181 198 
182 199 
183 201 
184 201 
185 201 
186 199 
187 199 
188 199 
189 198 
190 198 
191 197 
192 196 
193 196 
194 195 
195 194 
196 193 
197 192 
198 190 
199 190 
200 189 
201 188 
202 187 
203 186 
204 185 
205 183 
206 181 
207 180 
208 179 
209 178 
210 182 
211 182 
212 184 
213 188 
214 188 
215 185 
216 184 
217 181 
218 179 
219 179 
220 178 
221 177 
222 177 
223 176 
224 175 
225 174 
226 174 
227 173 
228 172 
229 171 
230 171 
231 170 
232 168 
233 167 
234 166 
235 165 
236 165 
237 166 
238 171 
239 169 
240 168 
241 167 
242 168 
243 167 
244 166 
245 164 
246 163 
247 163 
248 163 
249 162 
250 160 
251 158 
252 156 
253 156 
254 156 
255 154 
256 154 
257 154 
258 153 
259 153 
260 155 
261 156 
262 158 
263 166 
264 171 
265 171 
266 171 
267 170 
268 171 
269 172 
270 172 
271 172 
272 173 
273 177 
274 177 
275 177 
276 176 
277 176 
278 176 
279 175 
280 175 
281 175 
282 176 
283 176 
284 176 
285 176 
286 175 
287 174 
288 173 
289 172 
290 170 
291 170 
292 169 
293 167 
294 166 
295 164 
296 163 
297 163 
298 162 
299 165 
300 164 
301 162 
302 161 
303 162 
304 163 
305 162 
306 161 
307 160 
308 159 
309 157 
310 156 
311 157 
312 157 
313 155 
314 154 
315 154 
316 153 
317 151 
318 149 
319 148 
320 146 
321 144 
322 142 
323 140 
324 140 
325 139 
326 138 
327 138 
328 140 
329 157 
330 161 
331 166 
332 169 
333 170 
334 170 
335 169 
336 168 
337 166 
338 166 
339 164 
340 166 
341 168 
342 173 
343 174 
344 173 
345 172 
346 172 
347 171 
348 170 
349 168 
350 167 
351 167 
352 168 
353 168 
354 168 
355 167 
356 165 
357 164 
358 164 
359 164 
360 163 
361 163 
362 162 
363 160 
364 158 
365 157 
366 154 
367 154 
368 154 
369 154 
370 153 
371 152 
372 153 
373 153 
374 152 
375 151 
376 150 
377 151 
378 150 
379 150 
380 149 
381 150 
382 149 
383 149 
384 147 
385 147 
386 147 
387 145 
388 143 
389 145 
390 148 
391 149 
392 148 
393 148 
394 147 
395 146 
396 146 
397 146 
398 145 
399 144 
400 144 
401 143 
402 142 
403 145 
404 145 
405 144 
406 142 
407 141 
408 141 
409 140 
410 139 
411 138 
412 136 
413 134 
414 135 
415 134 
416 133 
417 134 
418 135 
419 135 
420 135 
421 135 
422 134 
423 133 
424 132 
425 132 
426 136 
427 138 
428 138 
429 138 
430 138 
431 138 
432 141 
433 141 
434 141 
435 142 
436 141 
437 140 
438 140 
439 139 
440 138 
441 136 
442 137 
443 139 
444 138 
445 137 
446 136 
447 134 
448 133 
449 134 
450 137 
451 137 
452 136 
453 134 
454 131 
455 129 
456 126 
457 125 
458 123 
459 122 
460 124 
461 126 
462 127 
463 126 
464 126 
465 124 
466 123 
467 122 
468 122 
469 122 
470 122 
471 120 
472 120 
473 120 
474 120 
475 118 
476 116 
477 115 
478 115 
479 114 
480 111 
481 113 
482 114 
483 113 
484 111 
485 112 
486 112 
487 112 
488 110 
489 109 
490 106 
491 105 
492 106 
493 106 
494 105 
495 104 
496 103 
497 102 
498 101 
499 101 
500 102 
501 102 
502 102 
503 102 
504 104 
505 105 
506 104 
507 104 
508 104 
509 104 
510 103 
511 101 
512 99 
513 97 
514 98 
515 99 
516 99 
517 98 
518 96 
519 94 
520 92 
521 89 
522 87 
523 90 
524 90 
525 91 
526 90 
527 89 
528 88 
529 87 
530 88 
531 91 
532 91 
533 92 
534 92 
535 89 
536 88 
537 88 
538 89 
539 89 
540 88 
541 87 
542 87 
543 88 
544 87 
545 86 
546 85 
547 86 
548 85 
549 84 
550 83 
551 83 
552 83 
553 82 
554 81 
555 80 
556 79 
557 77 
558 77 
559 78 
560 78 
561 77 
562 75 
563 75 
564 74 
565 74 
566 74 
567 75 
568 73 
569 74 
570 73 
571 71 
572 70 
573 69 
574 69 
575 69 
576 69 
577 68 
578 67 
579 67 
580 66 
581 65 
582 64 
583 64 
584 63 
585 66 
586 64 
587 64 
588 63 
589 63 
590 64 
591 63 
592 62 
593 61 
594 61 
595 60 
596 60 
597 57 
598 59 
599 58 
600 56 
601 55 
602 53 
603 52 
604 52 
605 52 
606 51 
607 52 
608 51 
609 52 
610 52 
611 51 
612 50 
613 49 
614 49 
615 47 
616 45 
617 45 
618 44 
619 42 
620 41 
621 40 
622 39 
623 39 
624 37 
625 36 
626 36 
627 35 
628 34 
629 32 
630 28 
631 27 
632 26 
633 23 
634 23 
635 21 
636 20 
637 21 
638 20 
639 19 
640 18 
641 17 
642 18 
643 17 
644 16 
645 15 
646 14 
647 14 
648 13 
649 15 
650 12 
651 9 
652 7 
653 6 
654 7 
655 6 
656 4 
657 3 
658 4 
659 3 
660 3 
661 2 
662 0 
663 0 

